; SMT 2
; Generated for Z3
(set-info :source "")
(set-option :produce-models true)

(declare-fun |inv_32| ((_ BitVec 32) (_ BitVec 32) (_ BitVec 32) (_ BitVec 32) (_ BitVec 32) (_ BitVec 64) (_ BitVec 64) (_ BitVec 64) (Array (_ BitVec 64) (_ BitVec 64)) (Array (_ BitVec 64) (Array (_ BitVec 64) (_ BitVec 64))) ) Bool)

; find_symbols
(declare-fun |tmp| () (_ BitVec 64))
(assert (forall ((|memor_0| (Array (_ BitVec 64) (Array (_ BitVec 64) (_ BitVec 64)))) (|alloc_0| (Array (_ BitVec 64) (_ BitVec 64))) (|main::$tmp::return_value_nondet_int| (_ BitVec 32)) (|main::$tmp::return_value_nondet_int$0| (_ BitVec 32)) (|main::$tmp::return_value_nondet_int$1| (_ BitVec 32)) (|main::$tmp::return_value_nondet_int$2| (_ BitVec 32)) (|main::1::tmp| (_ BitVec 32)) (|main::1::3::i| (_ BitVec 64)) (|main::1::L| (_ BitVec 64)) (|main::1::i| (_ BitVec 64)))
  (=> true 
    (|inv_32| |main::$tmp::return_value_nondet_int| |main::$tmp::return_value_nondet_int$0| |main::$tmp::return_value_nondet_int$1| |main::$tmp::return_value_nondet_int$2| |main::1::tmp| |main::1::3::i| |main::1::L| |main::1::i| |alloc_0| |memor_0|))))

(declare-fun |inv_31| ((_ BitVec 32) (_ BitVec 32) (_ BitVec 32) (_ BitVec 32) (_ BitVec 64) (_ BitVec 64) (_ BitVec 64) (Array (_ BitVec 64) (_ BitVec 64)) (Array (_ BitVec 64) (Array (_ BitVec 64) (_ BitVec 64))) ) Bool)

(assert (forall ((|memor_0| (Array (_ BitVec 64) (Array (_ BitVec 64) (_ BitVec 64)))) (|alloc_0| (Array (_ BitVec 64) (_ BitVec 64))) (|main::$tmp::return_value_nondet_int$0| (_ BitVec 32)) (|main::$tmp::return_value_nondet_int$0_1| (_ BitVec 32)) (|main::$tmp::return_value_nondet_int$1| (_ BitVec 32)) (|main::$tmp::return_value_nondet_int$1_1| (_ BitVec 32)) (|main::$tmp::return_value_nondet_int$2| (_ BitVec 32)) (|main::$tmp::return_value_nondet_int$2_1| (_ BitVec 32)) (|main::$tmp::return_value_nondet_int_1| (_ BitVec 32)) (|main::1::tmp| (_ BitVec 32)) (|main::1::tmp_1| (_ BitVec 32)) (|main::1::3::i| (_ BitVec 64)) (|main::1::3::i_1| (_ BitVec 64)) (|main::1::L| (_ BitVec 64)) (|main::1::L_1| (_ BitVec 64)) (|main::1::i| (_ BitVec 64)) (|main::1::i_1| (_ BitVec 64)))
  (=> (and 
    (|inv_32| |main::$tmp::return_value_nondet_int_1| |main::$tmp::return_value_nondet_int$0_1| |main::$tmp::return_value_nondet_int$1_1| |main::$tmp::return_value_nondet_int$2_1| |main::1::tmp_1| |main::1::3::i_1| |main::1::L_1| |main::1::i_1| |alloc_0| |memor_0|)
       (= |main::$tmp::return_value_nondet_int$0_1| |main::$tmp::return_value_nondet_int$0|)
       (= |main::$tmp::return_value_nondet_int$1_1| |main::$tmp::return_value_nondet_int$1|)
       (= |main::$tmp::return_value_nondet_int$2_1| |main::$tmp::return_value_nondet_int$2|)
       (= |main::1::tmp_1| |main::1::tmp|)
       (= |main::1::3::i_1| |main::1::3::i|)
       (= ((_ sign_extend 32) |main::$tmp::return_value_nondet_int_1|) |main::1::L|)
       (= |main::1::i_1| |main::1::i|)) 
    (|inv_31| |main::$tmp::return_value_nondet_int$0| |main::$tmp::return_value_nondet_int$1| |main::$tmp::return_value_nondet_int$2| |main::1::tmp| |main::1::3::i| |main::1::L| |main::1::i| |alloc_0| |memor_0|))))

(assert (forall ((|memor_0| (Array (_ BitVec 64) (Array (_ BitVec 64) (_ BitVec 64)))) (|alloc_0| (Array (_ BitVec 64) (_ BitVec 64))) (|main::$tmp::return_value_nondet_int$0| (_ BitVec 32)) (|main::$tmp::return_value_nondet_int$1| (_ BitVec 32)) (|main::$tmp::return_value_nondet_int$2| (_ BitVec 32)) (|main::1::tmp| (_ BitVec 32)) (|main::1::3::i| (_ BitVec 64)) (|main::1::L| (_ BitVec 64)) (|main::1::i| (_ BitVec 64)))
  (=> (and 
    (|inv_31| |main::$tmp::return_value_nondet_int$0| |main::$tmp::return_value_nondet_int$1| |main::$tmp::return_value_nondet_int$2| |main::1::tmp| |main::1::3::i| |main::1::L| |main::1::i| |alloc_0| |memor_0|)
       (not (bvugt |main::1::L| (_ bv0 64)))) true)))

(declare-fun |inv_30| ((_ BitVec 32) (_ BitVec 32) (_ BitVec 32) (_ BitVec 32) (_ BitVec 64) (_ BitVec 64) (_ BitVec 64) (Array (_ BitVec 64) (_ BitVec 64)) (Array (_ BitVec 64) (Array (_ BitVec 64) (_ BitVec 64))) ) Bool)

(assert (forall ((|memor_0| (Array (_ BitVec 64) (Array (_ BitVec 64) (_ BitVec 64)))) (|alloc_0| (Array (_ BitVec 64) (_ BitVec 64))) (|main::$tmp::return_value_nondet_int$0| (_ BitVec 32)) (|main::$tmp::return_value_nondet_int$1| (_ BitVec 32)) (|main::$tmp::return_value_nondet_int$2| (_ BitVec 32)) (|main::1::tmp| (_ BitVec 32)) (|main::1::3::i| (_ BitVec 64)) (|main::1::L| (_ BitVec 64)) (|main::1::i| (_ BitVec 64)))
  (=> (and 
    (|inv_31| |main::$tmp::return_value_nondet_int$0| |main::$tmp::return_value_nondet_int$1| |main::$tmp::return_value_nondet_int$2| |main::1::tmp| |main::1::3::i| |main::1::L| |main::1::i| |alloc_0| |memor_0|)
       (bvugt |main::1::L| (_ bv0 64))) 
    (|inv_30| |main::$tmp::return_value_nondet_int$0| |main::$tmp::return_value_nondet_int$1| |main::$tmp::return_value_nondet_int$2| |main::1::tmp| |main::1::3::i| |main::1::L| |main::1::i| |alloc_0| |memor_0|))))

(declare-fun |inv_29| ((_ BitVec 32) (_ BitVec 32) (_ BitVec 32) (_ BitVec 32) (_ BitVec 64) (_ BitVec 64) (_ BitVec 64) (Array (_ BitVec 64) (_ BitVec 64)) (Array (_ BitVec 64) (Array (_ BitVec 64) (_ BitVec 64))) ) Bool)

(assert (forall ((|memor_0| (Array (_ BitVec 64) (Array (_ BitVec 64) (_ BitVec 64)))) (|alloc_0| (Array (_ BitVec 64) (_ BitVec 64))) (|main::$tmp::return_value_nondet_int$0| (_ BitVec 32)) (|main::$tmp::return_value_nondet_int$1| (_ BitVec 32)) (|main::$tmp::return_value_nondet_int$2| (_ BitVec 32)) (|main::1::tmp| (_ BitVec 32)) (|main::1::3::i| (_ BitVec 64)) (|main::1::L| (_ BitVec 64)) (|main::1::i| (_ BitVec 64)))
  (=> 
    (|inv_30| |main::$tmp::return_value_nondet_int$0| |main::$tmp::return_value_nondet_int$1| |main::$tmp::return_value_nondet_int$2| |main::1::tmp| |main::1::3::i| |main::1::L| |main::1::i| |alloc_0| |memor_0|) 
    (|inv_29| |main::$tmp::return_value_nondet_int$0| |main::$tmp::return_value_nondet_int$1| |main::$tmp::return_value_nondet_int$2| |main::1::tmp| |main::1::3::i| |main::1::L| |main::1::i| |alloc_0| |memor_0|))))

(declare-fun |inv_27| ((_ BitVec 32) (_ BitVec 32) (_ BitVec 32) (_ BitVec 32) (_ BitVec 64) (_ BitVec 64) (_ BitVec 64) (Array (_ BitVec 64) (_ BitVec 64)) (Array (_ BitVec 64) (Array (_ BitVec 64) (_ BitVec 64))) ) Bool)

(assert (forall ((|memor_0| (Array (_ BitVec 64) (Array (_ BitVec 64) (_ BitVec 64)))) (|alloc_0| (Array (_ BitVec 64) (_ BitVec 64))) (|main::$tmp::return_value_nondet_int$0| (_ BitVec 32)) (|main::$tmp::return_value_nondet_int$1| (_ BitVec 32)) (|main::$tmp::return_value_nondet_int$2| (_ BitVec 32)) (|main::1::tmp| (_ BitVec 32)) (|main::1::3::i| (_ BitVec 64)) (|main::1::L| (_ BitVec 64)) (|main::1::i| (_ BitVec 64)))
  (=> 
    (|inv_29| |main::$tmp::return_value_nondet_int$0| |main::$tmp::return_value_nondet_int$1| |main::$tmp::return_value_nondet_int$2| |main::1::tmp| |main::1::3::i| |main::1::L| |main::1::i| |alloc_0| |memor_0|) 
    (|inv_27| |main::$tmp::return_value_nondet_int$0| |main::$tmp::return_value_nondet_int$1| |main::$tmp::return_value_nondet_int$2| |main::1::tmp| |main::1::3::i| |main::1::L| |main::1::i| |alloc_0| |memor_0|))))

(declare-fun |inv_28| ((_ BitVec 32) (_ BitVec 32) (_ BitVec 32) (_ BitVec 32) (_ BitVec 64) (_ BitVec 64) (_ BitVec 64) (Array (_ BitVec 64) (_ BitVec 64)) (Array (_ BitVec 64) (Array (_ BitVec 64) (_ BitVec 64))) ) Bool)

(assert (forall ((|memor_0| (Array (_ BitVec 64) (Array (_ BitVec 64) (_ BitVec 64)))) (|alloc_0| (Array (_ BitVec 64) (_ BitVec 64))) (|main::$tmp::return_value_nondet_int$0| (_ BitVec 32)) (|main::$tmp::return_value_nondet_int$1| (_ BitVec 32)) (|main::$tmp::return_value_nondet_int$2| (_ BitVec 32)) (|main::1::tmp| (_ BitVec 32)) (|main::1::3::i| (_ BitVec 64)) (|main::1::L| (_ BitVec 64)) (|main::1::i| (_ BitVec 64)))
  (=> (and 
    (|inv_29| |main::$tmp::return_value_nondet_int$0| |main::$tmp::return_value_nondet_int$1| |main::$tmp::return_value_nondet_int$2| |main::1::tmp| |main::1::3::i| |main::1::L| |main::1::i| |alloc_0| |memor_0|)
       (not (not (= |main::$tmp::return_value_nondet_int$0| (_ bv0 32))))) 
    (|inv_28| |main::$tmp::return_value_nondet_int$0| |main::$tmp::return_value_nondet_int$1| |main::$tmp::return_value_nondet_int$2| |main::1::tmp| |main::1::3::i| |main::1::L| |main::1::i| |alloc_0| |memor_0|))))

(declare-fun |inv_25| ((_ BitVec 32) (_ BitVec 32) (_ BitVec 32) (_ BitVec 64) (_ BitVec 64) (_ BitVec 64) (Array (_ BitVec 64) (_ BitVec 64)) (Array (_ BitVec 64) (Array (_ BitVec 64) (_ BitVec 64))) ) Bool)

(assert (forall ((|memor_0| (Array (_ BitVec 64) (Array (_ BitVec 64) (_ BitVec 64)))) (|alloc_0| (Array (_ BitVec 64) (_ BitVec 64))) (|alloc_1| (Array (_ BitVec 64) (_ BitVec 64))) (|main::$tmp::return_value_nondet_int$0| (_ BitVec 32)) (|main::$tmp::return_value_nondet_int$0_1| (_ BitVec 32)) (|main::$tmp::return_value_nondet_int$1| (_ BitVec 32)) (|main::$tmp::return_value_nondet_int$1_1| (_ BitVec 32)) (|main::$tmp::return_value_nondet_int$2| (_ BitVec 32)) (|main::$tmp::return_value_nondet_int$2_1| (_ BitVec 32)) (|main::1::tmp| (_ BitVec 32)) (|main::1::tmp_1| (_ BitVec 32)) (|main::1::3::i| (_ BitVec 64)) (|main::1::3::i_1| (_ BitVec 64)) (|main::1::L| (_ BitVec 64)) (|main::1::L_1| (_ BitVec 64)) (|main::1::i| (_ BitVec 64)) (|main::1::i_1| (_ BitVec 64)))
  (=> (and 
    (|inv_28| |main::$tmp::return_value_nondet_int$0_1| |main::$tmp::return_value_nondet_int$1_1| |main::$tmp::return_value_nondet_int$2_1| |main::1::tmp_1| |main::1::3::i_1| |main::1::L_1| |main::1::i_1| |alloc_1| |memor_0|)
       (= |alloc_0| (store |alloc_1| (_ bv6053561456450 64) (_ bv6053561456450 64)))
       (= |main::$tmp::return_value_nondet_int$0_1| |main::$tmp::return_value_nondet_int$0|)
       (= |main::$tmp::return_value_nondet_int$1_1| |main::$tmp::return_value_nondet_int$1|)
       (= |main::$tmp::return_value_nondet_int$2_1| |main::$tmp::return_value_nondet_int$2|)
       (= (_ bv0 32) |main::1::tmp|)
       (= |main::1::3::i_1| |main::1::3::i|)
       (= |main::1::L_1| |main::1::L|)
       (= |main::1::i_1| |main::1::i|)) 
    (|inv_25| |main::$tmp::return_value_nondet_int$1| |main::$tmp::return_value_nondet_int$2| |main::1::tmp| |main::1::3::i| |main::1::L| |main::1::i| |alloc_0| |memor_0|))))

(declare-fun |inv_26| ((_ BitVec 32) (_ BitVec 32) (_ BitVec 32) (_ BitVec 64) (_ BitVec 64) (_ BitVec 64) (Array (_ BitVec 64) (_ BitVec 64)) (Array (_ BitVec 64) (Array (_ BitVec 64) (_ BitVec 64))) ) Bool)

(assert (forall ((|memor_0| (Array (_ BitVec 64) (Array (_ BitVec 64) (_ BitVec 64)))) (|alloc_0| (Array (_ BitVec 64) (_ BitVec 64))) (|main::$tmp::return_value_nondet_int$0| (_ BitVec 32)) (|main::$tmp::return_value_nondet_int$1| (_ BitVec 32)) (|main::$tmp::return_value_nondet_int$2| (_ BitVec 32)) (|main::1::tmp| (_ BitVec 32)) (|main::1::3::i| (_ BitVec 64)) (|main::1::L| (_ BitVec 64)) (|main::1::i| (_ BitVec 64)))
  (=> (and 
    (|inv_27| |main::$tmp::return_value_nondet_int$0| |main::$tmp::return_value_nondet_int$1| |main::$tmp::return_value_nondet_int$2| |main::1::tmp| |main::1::3::i| |main::1::L| |main::1::i| |alloc_0| |memor_0|)
       (not (= |main::$tmp::return_value_nondet_int$0| (_ bv0 32)))) 
    (|inv_26| |main::$tmp::return_value_nondet_int$1| |main::$tmp::return_value_nondet_int$2| |main::1::tmp| |main::1::3::i| |main::1::L| |main::1::i| |alloc_0| |memor_0|))))

(assert (forall ((|memor_0| (Array (_ BitVec 64) (Array (_ BitVec 64) (_ BitVec 64)))) (|alloc_0| (Array (_ BitVec 64) (_ BitVec 64))) (|alloc_1| (Array (_ BitVec 64) (_ BitVec 64))) (|main::$tmp::return_value_nondet_int$1| (_ BitVec 32)) (|main::$tmp::return_value_nondet_int$1_1| (_ BitVec 32)) (|main::$tmp::return_value_nondet_int$2| (_ BitVec 32)) (|main::$tmp::return_value_nondet_int$2_1| (_ BitVec 32)) (|main::1::tmp| (_ BitVec 32)) (|main::1::tmp_1| (_ BitVec 32)) (|main::1::3::i| (_ BitVec 64)) (|main::1::3::i_1| (_ BitVec 64)) (|main::1::L| (_ BitVec 64)) (|main::1::L_1| (_ BitVec 64)) (|main::1::i| (_ BitVec 64)) (|main::1::i_1| (_ BitVec 64)))
  (=> (and 
    (|inv_26| |main::$tmp::return_value_nondet_int$1_1| |main::$tmp::return_value_nondet_int$2_1| |main::1::tmp_1| |main::1::3::i_1| |main::1::L_1| |main::1::i_1| |alloc_1| |memor_0|)
       (= |alloc_0| (store |alloc_1| (_ bv9363835545496 64) (_ bv9363835545496 64)))
       (= |main::$tmp::return_value_nondet_int$1_1| |main::$tmp::return_value_nondet_int$1|)
       (= |main::$tmp::return_value_nondet_int$2_1| |main::$tmp::return_value_nondet_int$2|)
       (= (_ bv1 32) |main::1::tmp|)
       (= |main::1::3::i_1| |main::1::3::i|)
       (= |main::1::L_1| |main::1::L|)
       (= |main::1::i_1| |main::1::i|)) 
    (|inv_25| |main::$tmp::return_value_nondet_int$1| |main::$tmp::return_value_nondet_int$2| |main::1::tmp| |main::1::3::i| |main::1::L| |main::1::i| |alloc_0| |memor_0|))))

(declare-fun |inv_23| ((_ BitVec 32) (_ BitVec 32) (_ BitVec 32) (_ BitVec 64) (_ BitVec 64) (_ BitVec 64) (Array (_ BitVec 64) (_ BitVec 64)) (Array (_ BitVec 64) (Array (_ BitVec 64) (_ BitVec 64))) ) Bool)

(assert (forall ((|memor_0| (Array (_ BitVec 64) (Array (_ BitVec 64) (_ BitVec 64)))) (|alloc_0| (Array (_ BitVec 64) (_ BitVec 64))) (|main::$tmp::return_value_nondet_int$1| (_ BitVec 32)) (|main::$tmp::return_value_nondet_int$2| (_ BitVec 32)) (|main::1::tmp| (_ BitVec 32)) (|main::1::3::i| (_ BitVec 64)) (|main::1::L| (_ BitVec 64)) (|main::1::i| (_ BitVec 64)))
  (=> 
    (|inv_25| |main::$tmp::return_value_nondet_int$1| |main::$tmp::return_value_nondet_int$2| |main::1::tmp| |main::1::3::i| |main::1::L| |main::1::i| |alloc_0| |memor_0|) 
    (|inv_23| |main::$tmp::return_value_nondet_int$1| |main::$tmp::return_value_nondet_int$2| |main::1::tmp| |main::1::3::i| |main::1::L| |main::1::i| |alloc_0| |memor_0|))))

(declare-fun |inv_24| ((_ BitVec 32) (_ BitVec 32) (_ BitVec 32) (_ BitVec 64) (_ BitVec 64) (_ BitVec 64) (Array (_ BitVec 64) (_ BitVec 64)) (Array (_ BitVec 64) (Array (_ BitVec 64) (_ BitVec 64))) ) Bool)

(assert (forall ((|memor_0| (Array (_ BitVec 64) (Array (_ BitVec 64) (_ BitVec 64)))) (|alloc_0| (Array (_ BitVec 64) (_ BitVec 64))) (|main::$tmp::return_value_nondet_int$1| (_ BitVec 32)) (|main::$tmp::return_value_nondet_int$2| (_ BitVec 32)) (|main::1::tmp| (_ BitVec 32)) (|main::1::3::i| (_ BitVec 64)) (|main::1::L| (_ BitVec 64)) (|main::1::i| (_ BitVec 64)))
  (=> (and 
    (|inv_23| |main::$tmp::return_value_nondet_int$1| |main::$tmp::return_value_nondet_int$2| |main::1::tmp| |main::1::3::i| |main::1::L| |main::1::i| |alloc_0| |memor_0|)
       (not (not (= |main::1::tmp| (_ bv0 32))))) 
    (|inv_24| |main::$tmp::return_value_nondet_int$1| |main::$tmp::return_value_nondet_int$2| |main::1::tmp| |main::1::3::i| |main::1::L| |main::1::i| |alloc_0| |memor_0|))))

(declare-fun |inv_21| ((_ BitVec 32) (_ BitVec 32) (_ BitVec 32) (_ BitVec 64) (_ BitVec 64) (_ BitVec 64) (Array (_ BitVec 64) (_ BitVec 64)) (Array (_ BitVec 64) (Array (_ BitVec 64) (_ BitVec 64))) ) Bool)

(assert (forall ((|memor_0| (Array (_ BitVec 64) (Array (_ BitVec 64) (_ BitVec 64)))) (|alloc_0| (Array (_ BitVec 64) (_ BitVec 64))) (|main::$tmp::return_value_nondet_int$1| (_ BitVec 32)) (|main::$tmp::return_value_nondet_int$1_1| (_ BitVec 32)) (|main::$tmp::return_value_nondet_int$2| (_ BitVec 32)) (|main::$tmp::return_value_nondet_int$2_1| (_ BitVec 32)) (|main::1::tmp| (_ BitVec 32)) (|main::1::tmp_1| (_ BitVec 32)) (|main::1::3::i| (_ BitVec 64)) (|main::1::3::i_1| (_ BitVec 64)) (|main::1::L| (_ BitVec 64)) (|main::1::L_1| (_ BitVec 64)) (|main::1::i| (_ BitVec 64)) (|main::1::i_1| (_ BitVec 64)))
  (=> (and 
    (|inv_24| |main::$tmp::return_value_nondet_int$1_1| |main::$tmp::return_value_nondet_int$2_1| |main::1::tmp_1| |main::1::3::i_1| |main::1::L_1| |main::1::i_1| |alloc_0| |memor_0|)
       (= |main::$tmp::return_value_nondet_int$1_1| |main::$tmp::return_value_nondet_int$1|)
       (= |main::$tmp::return_value_nondet_int$2_1| |main::$tmp::return_value_nondet_int$2|)
       (= (_ bv0 32) |main::1::tmp|)
       (= |main::1::3::i_1| |main::1::3::i|)
       (= |main::1::L_1| |main::1::L|)
       (= |main::1::i_1| |main::1::i|)) 
    (|inv_21| |main::$tmp::return_value_nondet_int$1| |main::$tmp::return_value_nondet_int$2| |main::1::tmp| |main::1::3::i| |main::1::L| |main::1::i| |alloc_0| |memor_0|))))

(declare-fun |inv_22| ((_ BitVec 32) (_ BitVec 32) (_ BitVec 32) (_ BitVec 64) (_ BitVec 64) (_ BitVec 64) (Array (_ BitVec 64) (_ BitVec 64)) (Array (_ BitVec 64) (Array (_ BitVec 64) (_ BitVec 64))) ) Bool)

(assert (forall ((|memor_0| (Array (_ BitVec 64) (Array (_ BitVec 64) (_ BitVec 64)))) (|alloc_0| (Array (_ BitVec 64) (_ BitVec 64))) (|main::$tmp::return_value_nondet_int$1| (_ BitVec 32)) (|main::$tmp::return_value_nondet_int$2| (_ BitVec 32)) (|main::1::tmp| (_ BitVec 32)) (|main::1::3::i| (_ BitVec 64)) (|main::1::L| (_ BitVec 64)) (|main::1::i| (_ BitVec 64)))
  (=> (and 
    (|inv_23| |main::$tmp::return_value_nondet_int$1| |main::$tmp::return_value_nondet_int$2| |main::1::tmp| |main::1::3::i| |main::1::L| |main::1::i| |alloc_0| |memor_0|)
       (not (= |main::1::tmp| (_ bv0 32)))) 
    (|inv_22| |main::$tmp::return_value_nondet_int$1| |main::$tmp::return_value_nondet_int$2| |main::1::tmp| |main::1::3::i| |main::1::L| |main::1::i| |alloc_0| |memor_0|))))

(assert (forall ((|memor_0| (Array (_ BitVec 64) (Array (_ BitVec 64) (_ BitVec 64)))) (|alloc_0| (Array (_ BitVec 64) (_ BitVec 64))) (|alloc_1| (Array (_ BitVec 64) (_ BitVec 64))) (|main::$tmp::return_value_nondet_int$1| (_ BitVec 32)) (|main::$tmp::return_value_nondet_int$2| (_ BitVec 32)) (|main::1::tmp| (_ BitVec 32)) (|main::1::3::i| (_ BitVec 64)) (|main::1::L| (_ BitVec 64)) (|main::1::i| (_ BitVec 64)))
  (=> (and 
    (|inv_22| |main::$tmp::return_value_nondet_int$1| |main::$tmp::return_value_nondet_int$2| |main::1::tmp| |main::1::3::i| |main::1::L| |main::1::i| |alloc_1| |memor_0|)
       (= |alloc_0| (store |alloc_1| (_ bv6053561456450 64) (select |alloc_1| (_ bv9363835545496 64))))) 
    (|inv_21| |main::$tmp::return_value_nondet_int$1| |main::$tmp::return_value_nondet_int$2| |main::1::tmp| |main::1::3::i| |main::1::L| |main::1::i| |alloc_0| |memor_0|))))

(declare-fun |inv_14| ((_ BitVec 32) (_ BitVec 32) (_ BitVec 32) (_ BitVec 64) (_ BitVec 64) (_ BitVec 64) (Array (_ BitVec 64) (_ BitVec 64)) (Array (_ BitVec 64) (Array (_ BitVec 64) (_ BitVec 64))) ) Bool)

(assert (forall ((|memor_0| (Array (_ BitVec 64) (Array (_ BitVec 64) (_ BitVec 64)))) (|alloc_0| (Array (_ BitVec 64) (_ BitVec 64))) (|main::$tmp::return_value_nondet_int$1| (_ BitVec 32)) (|main::$tmp::return_value_nondet_int$1_1| (_ BitVec 32)) (|main::$tmp::return_value_nondet_int$2| (_ BitVec 32)) (|main::$tmp::return_value_nondet_int$2_1| (_ BitVec 32)) (|main::1::tmp| (_ BitVec 32)) (|main::1::tmp_1| (_ BitVec 32)) (|main::1::3::i| (_ BitVec 64)) (|main::1::3::i_1| (_ BitVec 64)) (|main::1::L| (_ BitVec 64)) (|main::1::L_1| (_ BitVec 64)) (|main::1::i| (_ BitVec 64)) (|main::1::i_1| (_ BitVec 64)))
  (=> (and 
    (|inv_21| |main::$tmp::return_value_nondet_int$1_1| |main::$tmp::return_value_nondet_int$2_1| |main::1::tmp_1| |main::1::3::i_1| |main::1::L_1| |main::1::i_1| |alloc_0| |memor_0|)
       (= |main::$tmp::return_value_nondet_int$1_1| |main::$tmp::return_value_nondet_int$1|)
       (= |main::$tmp::return_value_nondet_int$2_1| |main::$tmp::return_value_nondet_int$2|)
       (= |main::1::tmp_1| |main::1::tmp|)
       (= (_ bv0 64) |main::1::3::i|)
       (= |main::1::L_1| |main::1::L|)
       (= |main::1::i_1| |main::1::i|)) 
    (|inv_14| |main::$tmp::return_value_nondet_int$1| |main::$tmp::return_value_nondet_int$2| |main::1::tmp| |main::1::3::i| |main::1::L| |main::1::i| |alloc_0| |memor_0|))))

(declare-fun |inv_18| ((_ BitVec 32) (_ BitVec 32) (_ BitVec 32) (_ BitVec 64) (_ BitVec 64) (_ BitVec 64) (Array (_ BitVec 64) (_ BitVec 64)) (Array (_ BitVec 64) (Array (_ BitVec 64) (_ BitVec 64))) ) Bool)

(assert (forall ((|memor_0| (Array (_ BitVec 64) (Array (_ BitVec 64) (_ BitVec 64)))) (|alloc_0| (Array (_ BitVec 64) (_ BitVec 64))) (|main::$tmp::return_value_nondet_int$1| (_ BitVec 32)) (|main::$tmp::return_value_nondet_int$2| (_ BitVec 32)) (|main::1::tmp| (_ BitVec 32)) (|main::1::3::i| (_ BitVec 64)) (|main::1::L| (_ BitVec 64)) (|main::1::i| (_ BitVec 64)))
  (=> (and 
    (|inv_14| |main::$tmp::return_value_nondet_int$1| |main::$tmp::return_value_nondet_int$2| |main::1::tmp| |main::1::3::i| |main::1::L| |main::1::i| |alloc_0| |memor_0|)
       (not (bvuge |main::1::3::i| |main::1::L|))) 
    (|inv_18| |main::$tmp::return_value_nondet_int$1| |main::$tmp::return_value_nondet_int$2| |main::1::tmp| |main::1::3::i| |main::1::L| |main::1::i| |alloc_0| |memor_0|))))

(declare-fun |inv_19| ((_ BitVec 32) (_ BitVec 32) (_ BitVec 32) (_ BitVec 64) (_ BitVec 64) (_ BitVec 64) (Array (_ BitVec 64) (_ BitVec 64)) (Array (_ BitVec 64) (Array (_ BitVec 64) (_ BitVec 64))) ) Bool)

(assert (forall ((|memor_0| (Array (_ BitVec 64) (Array (_ BitVec 64) (_ BitVec 64)))) (|alloc_0| (Array (_ BitVec 64) (_ BitVec 64))) (|main::$tmp::return_value_nondet_int$1| (_ BitVec 32)) (|main::$tmp::return_value_nondet_int$2| (_ BitVec 32)) (|main::1::tmp| (_ BitVec 32)) (|main::1::3::i| (_ BitVec 64)) (|main::1::L| (_ BitVec 64)) (|main::1::i| (_ BitVec 64)))
  (=> (and 
    (|inv_18| |main::$tmp::return_value_nondet_int$1| |main::$tmp::return_value_nondet_int$2| |main::1::tmp| |main::1::3::i| |main::1::L| |main::1::i| |alloc_0| |memor_0|)
       (not (not (= |main::$tmp::return_value_nondet_int$1| (_ bv0 32))))) 
    (|inv_19| |main::$tmp::return_value_nondet_int$1| |main::$tmp::return_value_nondet_int$2| |main::1::tmp| |main::1::3::i| |main::1::L| |main::1::i| |alloc_0| |memor_0|))))

(declare-fun |inv_16| ((_ BitVec 32) (_ BitVec 32) (_ BitVec 32) (_ BitVec 64) (_ BitVec 64) (_ BitVec 64) (Array (_ BitVec 64) (_ BitVec 64)) (Array (_ BitVec 64) (Array (_ BitVec 64) (_ BitVec 64))) ) Bool)

(assert (forall ((|memor_0| (Array (_ BitVec 64) (Array (_ BitVec 64) (_ BitVec 64)))) (|memor_1| (Array (_ BitVec 64) (Array (_ BitVec 64) (_ BitVec 64)))) (|alloc_0| (Array (_ BitVec 64) (_ BitVec 64))) (|main::$tmp::return_value_nondet_int$1| (_ BitVec 32)) (|main::$tmp::return_value_nondet_int$2| (_ BitVec 32)) (|main::1::tmp| (_ BitVec 32)) (|main::1::3::i| (_ BitVec 64)) (|main::1::L| (_ BitVec 64)) (|main::1::i| (_ BitVec 64)))
  (=> (and 
    (|inv_19| |main::$tmp::return_value_nondet_int$1| |main::$tmp::return_value_nondet_int$2| |main::1::tmp| |main::1::3::i| |main::1::L| |main::1::i| |alloc_0| |memor_1|)
       (= |memor_0| (store |memor_1| (select |alloc_0| (_ bv6053561456450 64)) (store (select |memor_1| (select |alloc_0| (_ bv6053561456450 64))) |main::1::3::i| |main::1::3::i|)))) 
    (|inv_16| |main::$tmp::return_value_nondet_int$1| |main::$tmp::return_value_nondet_int$2| |main::1::tmp| |main::1::3::i| |main::1::L| |main::1::i| |alloc_0| |memor_0|))))

(declare-fun |inv_17| ((_ BitVec 32) (_ BitVec 32) (_ BitVec 32) (_ BitVec 64) (_ BitVec 64) (_ BitVec 64) (Array (_ BitVec 64) (_ BitVec 64)) (Array (_ BitVec 64) (Array (_ BitVec 64) (_ BitVec 64))) ) Bool)

(assert (forall ((|memor_0| (Array (_ BitVec 64) (Array (_ BitVec 64) (_ BitVec 64)))) (|alloc_0| (Array (_ BitVec 64) (_ BitVec 64))) (|main::$tmp::return_value_nondet_int$1| (_ BitVec 32)) (|main::$tmp::return_value_nondet_int$2| (_ BitVec 32)) (|main::1::tmp| (_ BitVec 32)) (|main::1::3::i| (_ BitVec 64)) (|main::1::L| (_ BitVec 64)) (|main::1::i| (_ BitVec 64)))
  (=> (and 
    (|inv_18| |main::$tmp::return_value_nondet_int$1| |main::$tmp::return_value_nondet_int$2| |main::1::tmp| |main::1::3::i| |main::1::L| |main::1::i| |alloc_0| |memor_0|)
       (not (= |main::$tmp::return_value_nondet_int$1| (_ bv0 32)))) 
    (|inv_17| |main::$tmp::return_value_nondet_int$1| |main::$tmp::return_value_nondet_int$2| |main::1::tmp| |main::1::3::i| |main::1::L| |main::1::i| |alloc_0| |memor_0|))))

(assert (forall ((|memor_0| (Array (_ BitVec 64) (Array (_ BitVec 64) (_ BitVec 64)))) (|memor_1| (Array (_ BitVec 64) (Array (_ BitVec 64) (_ BitVec 64)))) (|alloc_0| (Array (_ BitVec 64) (_ BitVec 64))) (|main::$tmp::return_value_nondet_int$1| (_ BitVec 32)) (|main::$tmp::return_value_nondet_int$2| (_ BitVec 32)) (|main::1::tmp| (_ BitVec 32)) (|main::1::3::i| (_ BitVec 64)) (|main::1::L| (_ BitVec 64)) (|main::1::i| (_ BitVec 64)))
  (=> (and 
    (|inv_17| |main::$tmp::return_value_nondet_int$1| |main::$tmp::return_value_nondet_int$2| |main::1::tmp| |main::1::3::i| |main::1::L| |main::1::i| |alloc_0| |memor_1|)
       (= |memor_0| (store |memor_1| (select |alloc_0| (_ bv9363835545496 64)) (store (select |memor_1| (select |alloc_0| (_ bv9363835545496 64))) |main::1::3::i| |main::1::3::i|)))) 
    (|inv_16| |main::$tmp::return_value_nondet_int$1| |main::$tmp::return_value_nondet_int$2| |main::1::tmp| |main::1::3::i| |main::1::L| |main::1::i| |alloc_0| |memor_0|))))

(assert (forall ((|memor_0| (Array (_ BitVec 64) (Array (_ BitVec 64) (_ BitVec 64)))) (|alloc_0| (Array (_ BitVec 64) (_ BitVec 64))) (|main::$tmp::return_value_nondet_int$1| (_ BitVec 32)) (|main::$tmp::return_value_nondet_int$1_1| (_ BitVec 32)) (|main::$tmp::return_value_nondet_int$2| (_ BitVec 32)) (|main::$tmp::return_value_nondet_int$2_1| (_ BitVec 32)) (|main::1::tmp| (_ BitVec 32)) (|main::1::tmp_1| (_ BitVec 32)) (|main::1::3::i| (_ BitVec 64)) (|main::1::3::i_1| (_ BitVec 64)) (|main::1::L| (_ BitVec 64)) (|main::1::L_1| (_ BitVec 64)) (|main::1::i| (_ BitVec 64)) (|main::1::i_1| (_ BitVec 64)))
  (=> (and 
    (|inv_16| |main::$tmp::return_value_nondet_int$1_1| |main::$tmp::return_value_nondet_int$2_1| |main::1::tmp_1| |main::1::3::i_1| |main::1::L_1| |main::1::i_1| |alloc_0| |memor_0|)
       (= |main::$tmp::return_value_nondet_int$1_1| |main::$tmp::return_value_nondet_int$1|)
       (= |main::$tmp::return_value_nondet_int$2_1| |main::$tmp::return_value_nondet_int$2|)
       (= |main::1::tmp_1| |main::1::tmp|)
       (= (bvadd |main::1::3::i_1| (_ bv1 64)) |main::1::3::i|)
       (= |main::1::L_1| |main::1::L|)
       (= |main::1::i_1| |main::1::i|)) 
    (|inv_14| |main::$tmp::return_value_nondet_int$1| |main::$tmp::return_value_nondet_int$2| |main::1::tmp| |main::1::3::i| |main::1::L| |main::1::i| |alloc_0| |memor_0|))))

(declare-fun |inv_12| ((_ BitVec 32) (_ BitVec 32) (_ BitVec 64) (_ BitVec 64) (_ BitVec 64) (Array (_ BitVec 64) (_ BitVec 64)) (Array (_ BitVec 64) (Array (_ BitVec 64) (_ BitVec 64))) ) Bool)

(assert (forall ((|memor_0| (Array (_ BitVec 64) (Array (_ BitVec 64) (_ BitVec 64)))) (|alloc_0| (Array (_ BitVec 64) (_ BitVec 64))) (|main::$tmp::return_value_nondet_int$1| (_ BitVec 32)) (|main::$tmp::return_value_nondet_int$2| (_ BitVec 32)) (|main::1::tmp| (_ BitVec 32)) (|main::1::3::i| (_ BitVec 64)) (|main::1::L| (_ BitVec 64)) (|main::1::i| (_ BitVec 64)))
  (=> 
    (|inv_14| |main::$tmp::return_value_nondet_int$1| |main::$tmp::return_value_nondet_int$2| |main::1::tmp| |main::1::3::i| |main::1::L| |main::1::i| |alloc_0| |memor_0|) 
    (|inv_12| |main::$tmp::return_value_nondet_int$2| |main::1::tmp| |main::1::3::i| |main::1::L| |main::1::i| |alloc_0| |memor_0|))))

(declare-fun |inv_11| ((_ BitVec 32) (_ BitVec 64) (_ BitVec 64) (Array (_ BitVec 64) (_ BitVec 64)) (Array (_ BitVec 64) (Array (_ BitVec 64) (_ BitVec 64))) ) Bool)

(assert (forall ((|memor_0| (Array (_ BitVec 64) (Array (_ BitVec 64) (_ BitVec 64)))) (|alloc_0| (Array (_ BitVec 64) (_ BitVec 64))) (|main::$tmp::return_value_nondet_int$2_1| (_ BitVec 32)) (|main::1::tmp| (_ BitVec 32)) (|main::1::tmp_1| (_ BitVec 32)) (|main::1::3::i_1| (_ BitVec 64)) (|main::1::L| (_ BitVec 64)) (|main::1::L_1| (_ BitVec 64)) (|main::1::i| (_ BitVec 64)) (|main::1::i_1| (_ BitVec 64)))
  (=> (and 
    (|inv_12| |main::$tmp::return_value_nondet_int$2_1| |main::1::tmp_1| |main::1::3::i_1| |main::1::L_1| |main::1::i_1| |alloc_0| |memor_0|)
       (not (not (bvuge |main::1::3::i_1| |main::1::L_1|)))
       (= |main::1::tmp_1| |main::1::tmp|)
       (= |main::1::L_1| |main::1::L|)
       (= ((_ sign_extend 32) |main::$tmp::return_value_nondet_int$2_1|) |main::1::i|)) 
    (|inv_11| |main::1::tmp| |main::1::L| |main::1::i| |alloc_0| |memor_0|))))

(declare-fun |inv_9| ((_ BitVec 32) (_ BitVec 64) (_ BitVec 64) (Array (_ BitVec 64) (_ BitVec 64)) (Array (_ BitVec 64) (Array (_ BitVec 64) (_ BitVec 64))) ) Bool)

(assert (forall ((|memor_0| (Array (_ BitVec 64) (Array (_ BitVec 64) (_ BitVec 64)))) (|alloc_0| (Array (_ BitVec 64) (_ BitVec 64))) (|main::1::tmp| (_ BitVec 32)) (|main::1::L| (_ BitVec 64)) (|main::1::i| (_ BitVec 64)))
  (=> 
    (|inv_11| |main::1::tmp| |main::1::L| |main::1::i| |alloc_0| |memor_0|) 
    (|inv_9| |main::1::tmp| |main::1::L| |main::1::i| |alloc_0| |memor_0|))))

(declare-fun |inv_10| ((_ BitVec 32) (_ BitVec 64) (_ BitVec 64) (Array (_ BitVec 64) (_ BitVec 64)) (Array (_ BitVec 64) (Array (_ BitVec 64) (_ BitVec 64))) ) Bool)

(assert (forall ((|memor_0| (Array (_ BitVec 64) (Array (_ BitVec 64) (_ BitVec 64)))) (|alloc_0| (Array (_ BitVec 64) (_ BitVec 64))) (|main::1::tmp| (_ BitVec 32)) (|main::1::L| (_ BitVec 64)) (|main::1::i| (_ BitVec 64)))
  (=> (and 
    (|inv_11| |main::1::tmp| |main::1::L| |main::1::i| |alloc_0| |memor_0|)
       (not (not (bvuge |main::1::i| |main::1::L|)))) 
    (|inv_10| |main::1::tmp| |main::1::L| |main::1::i| |alloc_0| |memor_0|))))

(declare-fun |inv_5| ((_ BitVec 32) (Array (_ BitVec 64) (_ BitVec 64)) (Array (_ BitVec 64) (Array (_ BitVec 64) (_ BitVec 64))) ) Bool)

(assert (forall ((|memor_0| (Array (_ BitVec 64) (Array (_ BitVec 64) (_ BitVec 64)))) (|alloc_0| (Array (_ BitVec 64) (_ BitVec 64))) (|main::1::tmp| (_ BitVec 32)) (|main::1::L| (_ BitVec 64)) (|main::1::i| (_ BitVec 64)))
  (=> 
    (|inv_10| |main::1::tmp| |main::1::L| |main::1::i| |alloc_0| |memor_0|) 
    (|inv_5| |main::1::tmp| |alloc_0| |memor_0|))))

(declare-fun |inv_7| ((_ BitVec 32) (_ BitVec 64) (Array (_ BitVec 64) (_ BitVec 64)) (Array (_ BitVec 64) (Array (_ BitVec 64) (_ BitVec 64))) ) Bool)

(assert (forall ((|memor_0| (Array (_ BitVec 64) (Array (_ BitVec 64) (_ BitVec 64)))) (|alloc_0| (Array (_ BitVec 64) (_ BitVec 64))) (|main::1::tmp| (_ BitVec 32)) (|main::1::L| (_ BitVec 64)) (|main::1::i| (_ BitVec 64)))
  (=> (and 
    (|inv_9| |main::1::tmp| |main::1::L| |main::1::i| |alloc_0| |memor_0|)
       (not (bvuge |main::1::i| |main::1::L|))) 
    (|inv_7| |main::1::tmp| |main::1::i| |alloc_0| |memor_0|))))

(assert (forall ((|memor_0| (Array (_ BitVec 64) (Array (_ BitVec 64) (_ BitVec 64)))) (|alloc_0| (Array (_ BitVec 64) (_ BitVec 64))) (|main::1::tmp| (_ BitVec 32)) (|main::1::i| (_ BitVec 64)))
  (=> (and 
    (|inv_7| |main::1::tmp| |main::1::i| |alloc_0| |memor_0|)
       (not (= (select (select |memor_0| (select |alloc_0| (_ bv9363835545496 64))) |main::1::i|) |main::1::i|))) false)))

(declare-fun |inv_6| ((_ BitVec 32) (Array (_ BitVec 64) (_ BitVec 64)) (Array (_ BitVec 64) (Array (_ BitVec 64) (_ BitVec 64))) ) Bool)

(assert (forall ((|memor_0| (Array (_ BitVec 64) (Array (_ BitVec 64) (_ BitVec 64)))) (|alloc_0| (Array (_ BitVec 64) (_ BitVec 64))) (|main::1::tmp| (_ BitVec 32)) (|main::1::i| (_ BitVec 64)))
  (=> (and 
    (|inv_7| |main::1::tmp| |main::1::i| |alloc_0| |memor_0|)
       (= (select (select |memor_0| (select |alloc_0| (_ bv9363835545496 64))) |main::1::i|) |main::1::i|)) 
    (|inv_6| |main::1::tmp| |alloc_0| |memor_0|))))

(assert (forall ((|memor_0| (Array (_ BitVec 64) (Array (_ BitVec 64) (_ BitVec 64)))) (|alloc_0| (Array (_ BitVec 64) (_ BitVec 64))) (|main::1::tmp| (_ BitVec 32)))
  (=> 
    (|inv_6| |main::1::tmp| |alloc_0| |memor_0|) 
    (|inv_5| |main::1::tmp| |alloc_0| |memor_0|))))

(declare-fun |inv_4| ((_ BitVec 32) (Array (_ BitVec 64) (_ BitVec 64)) (Array (_ BitVec 64) (Array (_ BitVec 64) (_ BitVec 64))) ) Bool)

(assert (forall ((|memor_0| (Array (_ BitVec 64) (Array (_ BitVec 64) (_ BitVec 64)))) (|alloc_0| (Array (_ BitVec 64) (_ BitVec 64))) (|main::1::tmp| (_ BitVec 32)))
  (=> 
    (|inv_5| |main::1::tmp| |alloc_0| |memor_0|) 
    (|inv_4| |main::1::tmp| |alloc_0| |memor_0|))))

(declare-fun |inv_2| ((_ BitVec 32) (Array (_ BitVec 64) (_ BitVec 64)) (Array (_ BitVec 64) (Array (_ BitVec 64) (_ BitVec 64))) ) Bool)

(assert (forall ((|memor_0| (Array (_ BitVec 64) (Array (_ BitVec 64) (_ BitVec 64)))) (|alloc_0| (Array (_ BitVec 64) (_ BitVec 64))) (|main::1::tmp| (_ BitVec 32)))
  (=> 
    (|inv_4| |main::1::tmp| |alloc_0| |memor_0|) 
    (|inv_2| |main::1::tmp| |alloc_0| |memor_0|))))

(declare-fun |inv_3| ((_ BitVec 32) (Array (_ BitVec 64) (_ BitVec 64)) (Array (_ BitVec 64) (Array (_ BitVec 64) (_ BitVec 64))) ) Bool)

(assert (forall ((|memor_0| (Array (_ BitVec 64) (Array (_ BitVec 64) (_ BitVec 64)))) (|alloc_0| (Array (_ BitVec 64) (_ BitVec 64))) (|main::1::tmp| (_ BitVec 32)))
  (=> (and 
    (|inv_4| |main::1::tmp| |alloc_0| |memor_0|)
       (not (not (= |main::1::tmp| (_ bv0 32))))) 
    (|inv_3| |main::1::tmp| |alloc_0| |memor_0|))))

(declare-fun |inv_1| ((Array (_ BitVec 64) (_ BitVec 64)) (Array (_ BitVec 64) (Array (_ BitVec 64) (_ BitVec 64))) ) Bool)

(assert (forall ((|memor_0| (Array (_ BitVec 64) (Array (_ BitVec 64) (_ BitVec 64)))) (|alloc_0| (Array (_ BitVec 64) (_ BitVec 64))) (|main::1::tmp| (_ BitVec 32)))
  (=> 
    (|inv_3| |main::1::tmp| |alloc_0| |memor_0|) 
    (|inv_1| |alloc_0| |memor_0|))))

(assert (forall ((|memor_0| (Array (_ BitVec 64) (Array (_ BitVec 64) (_ BitVec 64)))) (|alloc_0| (Array (_ BitVec 64) (_ BitVec 64))) (|main::1::tmp| (_ BitVec 32)))
  (=> (and 
    (|inv_2| |main::1::tmp| |alloc_0| |memor_0|)
       (not (= |main::1::tmp| (_ bv0 32)))) 
    (|inv_1| |alloc_0| |memor_0|))))

(assert (forall ((|memor_0| (Array (_ BitVec 64) (Array (_ BitVec 64) (_ BitVec 64)))) (|alloc_0| (Array (_ BitVec 64) (_ BitVec 64))))
  (=> 
    (|inv_1| |alloc_0| |memor_0|) true)))

(check-sat)